MLT04
Position Depot: Random
Horizon for Depot: Large
Position of customers: Mixt
Distribution of the demand: Large
Width of time windows: Tight
Distribution of the service: Small

VEHICLE 
NUMBER 	 CAPACITY 
 5 	 	 404 
 
CUSTOMER
CUST NO. 	 XCOORD.  	 YCOORD. 	 DEMAND 	 READY TIME 	 DUE DATE 	 SERVICE TIME 
 0 	 	 149 	 	 99 	 	 0 	 	 0 	 	 4871 	 	 0 
  1 	 	 345 	 	 78 	 	 1 	 	 3591 	 	 3675 	 	 79 
  2 	 	 452 	 	 16 	 	 51 	 	 4753 	 	 4871 	 	 67 
  3 	 	 942 	 	 766 	 	 46 	 	 4148 	 	 4333 	 	 86 
  4 	 	 290 	 	 2 	 	 1 	 	 116 	 	 188 	 	 74 
  5 	 	 908 	 	 759 	 	 68 	 	 2450 	 	 2556 	 	 63 
  6 	 	 468 	 	 33 	 	 64 	 	 3580 	 	 3652 	 	 93 
  7 	 	 982 	 	 811 	 	 7 	 	 2932 	 	 3067 	 	 85 
  8 	 	 307 	 	 78 	 	 76 	 	 900 	 	 1084 	 	 73 
  9 	 	 908 	 	 775 	 	 37 	 	 3889 	 	 4058 	 	 60 
  10 	 	 374 	 	 152 	 	 54 	 	 1243 	 	 1306 	 	 63 
  11 	 	 294 	 	 127 	 	 3 	 	 1353 	 	 1512 	 	 54 
  12 	 	 423 	 	 28 	 	 87 	 	 4445 	 	 4543 	 	 91 
  13 	 	 965 	 	 773 	 	 82 	 	 2084 	 	 2235 	 	 54 
  14 	 	 350 	 	 82 	 	 74 	 	 1449 	 	 1562 	 	 99 
  15 	 	 936 	 	 738 	 	 32 	 	 2774 	 	 2927 	 	 99 
  16 	 	 905 	 	 612 	 	 9 	 	 3034 	 	 3216 	 	 71 
  17 	 	 968 	 	 752 	 	 64 	 	 1457 	 	 1536 	 	 55 
  18 	 	 330 	 	 83 	 	 7 	 	 2349 	 	 2431 	 	 93 
  19 	 	 392 	 	 19 	 	 66 	 	 2552 	 	 2690 	 	 66 
  20 	 	 844 	 	 867 	 	 79 	 	 962 	 	 1139 	 	 90 
  21 	 	 449 	 	 5 	 	 23 	 	 175 	 	 345 	 	 80 
  22 	 	 518 	 	 85 	 	 34 	 	 2741 	 	 2801 	 	 86 
  23 	 	 969 	 	 740 	 	 82 	 	 1000 	 	 1144 	 	 55 
  24 	 	 160 	 	 213 	 	 100 	 	 2751 	 	 2865 	 	 51 
  25 	 	 326 	 	 123 	 	 98 	 	 3482 	 	 3603 	 	 100 
  26 	 	 269 	 	 826 	 	 10 	 	 4079 	 	 4139 	 	 82 
  27 	 	 581 	 	 12 	 	 47 	 	 1696 	 	 1785 	 	 59 
  28 	 	 886 	 	 685 	 	 59 	 	 3029 	 	 3141 	 	 64 
  29 	 	 995 	 	 316 	 	 22 	 	 2932 	 	 3025 	 	 82 
  30 	 	 917 	 	 285 	 	 80 	 	 1112 	 	 1233 	 	 86 
  31 	 	 692 	 	 625 	 	 25 	 	 3606 	 	 3708 	 	 82 
  32 	 	 601 	 	 472 	 	 4 	 	 2069 	 	 2151 	 	 93 
  33 	 	 769 	 	 267 	 	 100 	 	 528 	 	 706 	 	 68 
  34 	 	 436 	 	 717 	 	 6 	 	 613 	 	 749 	 	 87 
  35 	 	 386 	 	 366 	 	 33 	 	 289 	 	 392 	 	 90 
  36 	 	 756 	 	 618 	 	 92 	 	 2825 	 	 3005 	 	 62 
  37 	 	 117 	 	 418 	 	 24 	 	 3070 	 	 3172 	 	 78 
  38 	 	 433 	 	 317 	 	 23 	 	 2890 	 	 2995 	 	 62 
  39 	 	 772 	 	 969 	 	 48 	 	 3080 	 	 3260 	 	 75 
  40 	 	 309 	 	 362 	 	 30 	 	 4025 	 	 4106 	 	 51 
  41 	 	 46 	 	 742 	 	 38 	 	 4009 	 	 4083 	 	 97 
  42 	 	 784 	 	 244 	 	 24 	 	 4469 	 	 4539 	 	 82 
  43 	 	 772 	 	 297 	 	 10 	 	 577 	 	 719 	 	 82 
  44 	 	 502 	 	 317 	 	 9 	 	 2187 	 	 2244 	 	 84 
  45 	 	 940 	 	 332 	 	 32 	 	 2823 	 	 3006 	 	 59 
  46 	 	 337 	 	 626 	 	 79 	 	 1500 	 	 1553 	 	 85 
  47 	 	 727 	 	 121 	 	 84 	 	 465 	 	 647 	 	 54 
  48 	 	 287 	 	 194 	 	 23 	 	 2891 	 	 3083 	 	 88 
  49 	 	 929 	 	 519 	 	 11 	 	 827 	 	 974 	 	 91 
  50 	 	 701 	 	 650 	 	 85 	 	 4604 	 	 4679 	 	 59 
 